12
Coordinates from ORCA-job neb_NEB-CI_converged E -21.447682037390
  C          -0.27018973849249     -0.61268156832881      1.21868921665608
  C           0.27854105259661     -0.81938476694217     -1.41923404734039
  C           0.43100467937779      0.51910691572400     -1.30731260630789
  O           0.55808968447170      1.18435787108489     -0.23684339373522
  H           0.45090250979426      1.10390329908327     -2.23938157891410
  H           0.02189969536847     -1.28599582727005     -2.35219277744618
  H           0.61552395796302     -1.46051217008811     -0.62494774433064
  O          -1.22500441423902      0.21430895219485      1.49004668199438
  O          -0.80976392148427      1.49092669625580      1.86126087455930
  H          -0.15505416818659      1.69707838069561      1.12482502304640
  H          -0.65291540073224     -1.59453752644494      0.99409164665796
  H           0.75696606356275     -0.43657025596433      1.49099870516032
